webassembly/ejemplos_dzn/folder9_json_41.dzn
TERM = { '.', 's(2)', 'in_1', 'local_1', 'in_2', 'in_4', 'in_3', 's(1)', 's(0)', 'in_0'};
null = '.';
s = 9;
n = 11;
ndeps = 3;
max_registers_sz = 3;
NR = 0;
registers = [| |];
dependencies = [|'i32.store16_1', 'i32.load_3', |'i32.load_3', 'i32.store_4', |'i32.store_4', 'i32.load8_u_5'|];
GET_ENUM = { GET1, GET2, GET3};
SET_ENUM = { SET1, SET2, SET3};
TEE_ENUM = { TEE1, TEE2, TEE3};
N = 6;
OP = { 'i32.store16_1', 'i32.sub_0', 'i32.load_3', 'i32.store_4', 'i32.load8_u_5', 'local.get_0' };
in_ops = [2, 2, 1, 2, 1, 0 ];
out_ops = [0, 1, 1, 0, 1, 1 ];
in1 = ['local_1', 'in_1', 's(0)', 's(1)', 'in_4', '.' ];
in2 = ['in_0', 'in_2', '.', 'in_3', '.', '.' ];
in3 = ['.', '.', '.', '.', '.', '.' ];
out1 = ['.', 's(0)', 's(1)', '.', 's(2)', 'local_1' ];
out2 = ['.', '.', '.', '.', '.', '.' ];
out3 = ['.', '.', '.', '.', '.', '.' ];
comm = [false, false, false, false, false, false ];
gas = [1, 1, 1, 1, 1, 1 ];
sz = [1, 1, 1, 1, 1, 1 ];
stor = [true, false, false, true, false, false ];
lb = [ 1, 1, 1, 1, 1, 1 ];
ub = [ 9, 9, 9, 9, 9, 9 ];
startstack = [ 'in_0', 'in_1', 'in_2', 'in_3', 'in_4', null, null, null, null, null, null ];
endstack = [ 'local_1', 's(2)', null, null, null, null, null, null, null, null, null ];
