webassembly/ejemplos_results/9/folder9_json_41.txt
value = 9;
fgas = [1, 1, 1, 1, 1, 1, 1, 1, 1];
fsize = [1, 1, 1, 1, 1, 1, 1, 1, 1];
states = 
[|    in_0,   in_1, in_2, in_3, in_4,  '.', '.', '.', '.', '.',  '.'
 | local_1,   in_0, in_1, in_2, in_3, in_4, '.', '.', '.', '.',  '.'
 |    in_1,   in_2, in_3, in_4,  '.',  '.', '.', '.', '.', '.',  '.'
 |  's(0)',   in_0, in_4,  '.',  '.',  '.', '.', '.', '.', '.', in_0
 | local_1,   in_0, in_0, in_4,  '.',  '.', '.', '.', '.', '.',  '.'
 |  's(0)',   in_4,  '.',  '.',  '.',  '.', '.', '.', '.', '.',  '.'
 |  's(1)',   in_3,  '.',  '.',  '.',  '.', '.', '.', '.', '.',  '.'
 |    in_4,    '.',  '.',  '.',  '.',  '.', '.', '.', '.', '.', in_0
 |  's(2)',    '.',  '.',  '.',  '.',  '.', '.', '.', '.', '.', in_0
 | local_1, 's(2)',  '.',  '.',  '.',  '.', '.', '.', '.', '.',  '.'
 |];
register_states = 
[| '.', '.', '.'
 | '.', '.', '.'
 | '.', '.', '.'
 | '.', '.', '.'
 | '.', '.', '.'
 | '.', '.', '.'
 | '.', '.', '.'
 | '.', '.', '.'
 | '.', '.', '.'
 | '.', '.', '.'
 |];
program = [O('local.get_0'), O('i32.store16_1'), O('i32.sub_0'), O('local.get_0'), O('i32.store16_1'), O('i32.load_3'), O('i32.store_4'), O('i32.load8_u_5'), O('local.get_0')];
% time elapsed: 0.11 s
----------
value = 8;
fgas = [2, 1, 1, 1, 1, 1, 1, 1, 0];
fsize = [1, 1, 1, 1, 1, 1, 1, 1, 1];
states = 
[|    in_0,   in_1,   in_2,   in_3, in_4, '.', '.', '.', '.', '.',  '.'
 |    in_1,   in_2,   in_3,   in_4,  '.', '.', '.', '.', '.', '.',  '.'
 |  's(0)',   in_0,   in_4,    '.',  '.', '.', '.', '.', '.', '.',  '.'
 |  's(1)',   in_3,   in_4,    '.',  '.', '.', '.', '.', '.', '.',  '.'
 |    in_4,    '.',    '.',    '.',  '.', '.', '.', '.', '.', '.', in_0
 |  's(2)', 's(2)',    '.',    '.',  '.', '.', '.', '.', '.', '.', in_0
 | local_1, 's(0)', 's(2)',    '.',  '.', '.', '.', '.', '.', '.',  '.'
 | local_1,   in_0, 's(0)', 's(2)',  '.', '.', '.', '.', '.', '.',  '.'
 | local_1, 's(2)',    '.',    '.',  '.', '.', '.', '.', '.', '.',  '.'
 | local_1, 's(2)',    '.',    '.',  '.', '.', '.', '.', '.', '.',  '.'
 |];
register_states = 
[| '.', '.', '.'
 | '.', '.', '.'
 | '.', '.', '.'
 | '.', '.', '.'
 | '.', '.', '.'
 | '.', '.', '.'
 | '.', '.', '.'
 | '.', '.', '.'
 | '.', '.', '.'
 | '.', '.', '.'
 |];
program = [POP, O('i32.sub_0'), O('i32.load_3'), O('i32.store_4'), O('i32.load8_u_5'), O('local.get_0'), O('local.get_0'), O('i32.store16_1'), NOP];
% time elapsed: 0.12 s
----------
value = 7;
fgas = [1, 1, 1, 1, 1, 1, 1, 0, 0];
fsize = [1, 1, 1, 1, 1, 1, 1, 1, 1];
states = 
[|    in_0,   in_1, in_2, in_3, in_4,  '.', '.', '.', '.', '.',     '.'
 | local_1,   in_0, in_1, in_2, in_3, in_4, '.', '.', '.', '.',     '.'
 |    in_1,   in_2, in_3, in_4,  '.',  '.', '.', '.', '.', '.',     '.'
 |  's(0)',   in_0, in_4,  '.',  '.',  '.', '.', '.', '.', '.',     '.'
 |  's(1)',   in_3, in_4,  '.',  '.',  '.', '.', '.', '.', '.',     '.'
 |    in_4,    '.',  '.',  '.',  '.',  '.', '.', '.', '.', '.', local_1
 |  's(2)',    '.',  '.',  '.',  '.',  '.', '.', '.', '.', '.', local_1
 | local_1, 's(2)',  '.',  '.',  '.',  '.', '.', '.', '.', '.',     '.'
 | local_1, 's(2)',  '.',  '.',  '.',  '.', '.', '.', '.', '.',     '.'
 | local_1, 's(2)',  '.',  '.',  '.',  '.', '.', '.', '.', '.',     '.'
 |];
register_states = 
[| '.', '.', '.'
 | '.', '.', '.'
 | '.', '.', '.'
 | '.', '.', '.'
 | '.', '.', '.'
 | '.', '.', '.'
 | '.', '.', '.'
 | '.', '.', '.'
 | '.', '.', '.'
 | '.', '.', '.'
 |];
program = [O('local.get_0'), O('i32.store16_1'), O('i32.sub_0'), O('i32.load_3'), O('i32.store_4'), O('i32.load8_u_5'), O('local.get_0'), NOP, NOP];
% time elapsed: 0.12 s
----------
==========
% time elapsed: 0.12 s
% [value > 6]
